rsa_demo_benchmark_output/128/certs/0001.assert.smt2
; benchmark generated from python API
(set-info :status unknown)
(declare-fun p () Int)
(declare-fun q () Int)
(declare-fun n () Int)
(assert
 (= p 12584332843312055219))
(assert
 (= q 16952471869440318073))
(assert
 (= n 213335548521921510076229909402699672987))
(assert
 (= (* p q) n))
(assert
 (> p 1))
(assert
 (> q 1))
(check-sat)
